# Random Circle Problem
param d := 0.05; 
param n := 10; 
param radius := 2.00; 
param v0 := 
1 5.45
2 5.30
3 4.97
4 5.41
5 5.48
6 5.44
7 5.24
8 5.02
9 4.95
10 4.99
;
param cap := 
1 2.80547
2 4.24465
3 4.89392
4 4.65512
5 5.16488
6 0.21880
7 0.25514
8 0.87961
9 2.07448
10 2.37037
;
param x0 := 
1 2.00
2 1.62
3 0.62
4 -0.62
5 -1.62
6 -2.00
7 -1.62
8 -0.62
9 0.62
10 1.62
;
param y0 := 
1 -0.00
2 1.18
3 1.90
4 1.90
5 1.18
6 0.00
7 -1.18
8 -1.90
9 -1.90
10 -1.18
;
